% inst_mediana_satisfacible.dzn
% 2 plantas, 1 tanque, 1 nodo de transbordo, 2 nodos finales, 5 arcos

nP = 2;
nT = 1;
nC1 = 1;
nC2 = 2;

nA = 5;
arc_from = [1, 2, 3, 4, 4];
arc_to   = [3, 3, 4, 5, 6];

% Demandas: plantas y tanque = 0, transbordo = 10, finales = 5 y 15 l/min
demand = [ 0.0, 0.0, 0.0, 10.0, 5.0, 15.0 ];

% Costos de instalación (tipo a) por arco y diámetro D2, D3, D5
install_cost = array2d(1..5,1..3, [
  20.0, 24.0, 32.0,  % arco 1 (1→3)
  20.0, 24.0, 32.0,  % arco 2 (2→3)
  20.0, 24.0, 32.0,  % arco 3 (3→4)
  20.0, 24.0, 32.0,  % arco 4 (4→5)
  20.0, 24.0, 32.0   % arco 5 (4→6)
]);

% Costos de transporte por unidad de flujo (mismo para todos)
trans_cost = [ 1.0, 1.0, 1.0, 1.0, 1.0 ];
